c CNF file corresponding to a (partial) station packing problem.
p cnf 5564 229
1 2 3 4 5 6 7 8 9 10 11 12 13 14 0
-1 -2 0
-1 -3 0
-1 -4 0
-1 -5 0
-1 -6 0
-1 -7 0
-1 -8 0
-1 -9 0
-1 -10 0
-1 -11 0
-1 -12 0
-1 -13 0
-1 -14 0
-2 -3 0
-2 -4 0
-2 -5 0
-2 -6 0
-2 -7 0
-2 -8 0
-2 -9 0
-2 -10 0
-2 -11 0
-2 -12 0
-2 -13 0
-2 -14 0
-3 -4 0
-3 -5 0
-3 -6 0
-3 -7 0
-3 -8 0
-3 -9 0
-3 -10 0
-3 -11 0
-3 -12 0
-3 -13 0
-3 -14 0
-4 -5 0
-4 -6 0
-4 -7 0
-4 -8 0
-4 -9 0
-4 -10 0
-4 -11 0
-4 -12 0
-4 -13 0
-4 -14 0
-5 -6 0
-5 -7 0
-5 -8 0
-5 -9 0
-5 -10 0
-5 -11 0
-5 -12 0
-5 -13 0
-5 -14 0
-6 -7 0
-6 -8 0
-6 -9 0
-6 -10 0
-6 -11 0
-6 -12 0
-6 -13 0
-6 -14 0
-7 -8 0
-7 -9 0
-7 -10 0
-7 -11 0
-7 -12 0
-7 -13 0
-7 -14 0
-8 -9 0
-8 -10 0
-8 -11 0
-8 -12 0
-8 -13 0
-8 -14 0
-9 -10 0
-9 -11 0
-9 -12 0
-9 -13 0
-9 -14 0
-10 -11 0
-10 -12 0
-10 -13 0
-10 -14 0
-11 -12 0
-11 -13 0
-11 -14 0
-12 -13 0
-12 -14 0
-13 -14 0
5548 5549 5550 5551 5552 5553 5554 5555 5556 5557 5558 5559 5560 5561 5562 5563 5564 0
-5548 -5549 0
-5548 -5550 0
-5548 -5551 0
-5548 -5552 0
-5548 -5553 0
-5548 -5554 0
-5548 -5555 0
-5548 -5556 0
-5548 -5557 0
-5548 -5558 0
-5548 -5559 0
-5548 -5560 0
-5548 -5561 0
-5548 -5562 0
-5548 -5563 0
-5548 -5564 0
-5549 -5550 0
-5549 -5551 0
-5549 -5552 0
-5549 -5553 0
-5549 -5554 0
-5549 -5555 0
-5549 -5556 0
-5549 -5557 0
-5549 -5558 0
-5549 -5559 0
-5549 -5560 0
-5549 -5561 0
-5549 -5562 0
-5549 -5563 0
-5549 -5564 0
-5550 -5551 0
-5550 -5552 0
-5550 -5553 0
-5550 -5554 0
-5550 -5555 0
-5550 -5556 0
-5550 -5557 0
-5550 -5558 0
-5550 -5559 0
-5550 -5560 0
-5550 -5561 0
-5550 -5562 0
-5550 -5563 0
-5550 -5564 0
-5551 -5552 0
-5551 -5553 0
-5551 -5554 0
-5551 -5555 0
-5551 -5556 0
-5551 -5557 0
-5551 -5558 0
-5551 -5559 0
-5551 -5560 0
-5551 -5561 0
-5551 -5562 0
-5551 -5563 0
-5551 -5564 0
-5552 -5553 0
-5552 -5554 0
-5552 -5555 0
-5552 -5556 0
-5552 -5557 0
-5552 -5558 0
-5552 -5559 0
-5552 -5560 0
-5552 -5561 0
-5552 -5562 0
-5552 -5563 0
-5552 -5564 0
-5553 -5554 0
-5553 -5555 0
-5553 -5556 0
-5553 -5557 0
-5553 -5558 0
-5553 -5559 0
-5553 -5560 0
-5553 -5561 0
-5553 -5562 0
-5553 -5563 0
-5553 -5564 0
-5554 -5555 0
-5554 -5556 0
-5554 -5557 0
-5554 -5558 0
-5554 -5559 0
-5554 -5560 0
-5554 -5561 0
-5554 -5562 0
-5554 -5563 0
-5554 -5564 0
-5555 -5556 0
-5555 -5557 0
-5555 -5558 0
-5555 -5559 0
-5555 -5560 0
-5555 -5561 0
-5555 -5562 0
-5555 -5563 0
-5555 -5564 0
-5556 -5557 0
-5556 -5558 0
-5556 -5559 0
-5556 -5560 0
-5556 -5561 0
-5556 -5562 0
-5556 -5563 0
-5556 -5564 0
-5557 -5558 0
-5557 -5559 0
-5557 -5560 0
-5557 -5561 0
-5557 -5562 0
-5557 -5563 0
-5557 -5564 0
-5558 -5559 0
-5558 -5560 0
-5558 -5561 0
-5558 -5562 0
-5558 -5563 0
-5558 -5564 0
-5559 -5560 0
-5559 -5561 0
-5559 -5562 0
-5559 -5563 0
-5559 -5564 0
-5560 -5561 0
-5560 -5562 0
-5560 -5563 0
-5560 -5564 0
-5561 -5562 0
-5561 -5563 0
-5561 -5564 0
-5562 -5563 0
-5562 -5564 0
-5563 -5564 0
